NAME : portcgen-23-19
COMMENT : portcgen N=23, seed=19
TYPE : TSP
DIMENSION : 23
EDGE_WEIGHT_TYPE : EUC_2D
NODE_COORD_SECTION
1 -49093 -168423
2 -183859 52627
3 51789 343686
4 -294347 133592
5 -212714 -68642
6 21256 -78226
7 364890 -55768
8 450709 79964
9 5456 -86604
10 179772 130625
11 -412945 184932
12 -186700 53872
13 -33486 -497447
14 -150587 150869
15 -265688 -3195
16 114134 23264
17 -133349 -246515
18 -198159 35982
19 222332 325212
20 -506197 -4831
21 98094 -131561
22 -560383 -205413
23 145564 52151
